p cnf 232 619
17 13 0
-17 -13 0
20 16 0
-20 -16 0
25 16 0
-25 -16 0
30 15 0
-30 -15 0
35 14 0
-35 -14 0
42 15 0
-42 -15 0
-47 16 0
47 -16 0
51 16 0
-51 -16 0
57 15 0
-57 -15 0
-63 16 0
63 -16 0
71 13 0
-71 -13 0
75 15 0
-75 -15 0
1 2 -31 0
1 -2 31 0
-1 2 31 0
-1 -2 -31 0
1 3 -21 0
1 -3 21 0
-1 3 21 0
-1 -3 -21 0
1 5 -52 0
1 -5 52 0
-1 5 52 0
-1 -5 -52 0
2 3 -43 0
2 -3 43 0
-2 3 43 0
-2 -3 -43 0
2 5 -26 0
2 -5 26 0
-2 5 26 0
-2 -5 -26 0
3 7 -18 0
3 -7 18 0
-3 7 18 0
-3 -7 -18 0
4 8 -48 0
4 -8 48 0
-4 8 48 0
-4 -8 -48 0
7 9 -17 0
7 -9 17 0
-7 9 17 0
-7 -9 -17 0
18 12 -19 0
18 -12 19 0
-18 12 19 0
-18 -12 -19 0
19 14 -20 0
19 -14 20 0
-19 14 20 0
-19 -14 -20 0
21 5 -22 0
21 -5 22 0
-21 5 22 0
-21 -5 -22 0
22 9 -23 0
22 -9 23 0
-22 9 23 0
-22 -9 -23 0
23 10 -24 0
23 -10 24 0
-23 10 24 0
-23 -10 -24 0
24 15 -25 0
24 -15 25 0
-24 15 25 0
-24 -15 -25 0
26 6 -27 0
26 -6 27 0
-26 6 27 0
-26 -6 -27 0
27 8 -28 0
27 -8 28 0
-27 8 28 0
-27 -8 -28 0
28 10 -29 0
28 -10 29 0
-28 10 29 0
-28 -10 -29 0
29 14 -30 0
29 -14 30 0
-29 14 30 0
-29 -14 -30 0
31 3 -32 0
31 -3 32 0
-31 3 32 0
-31 -3 -32 0
31 4 -36 0
31 -4 36 0
-31 4 36 0
-31 -4 -36 0
31 5 -58 0
31 -5 58 0
-31 5 58 0
-31 -5 -58 0
32 4 -64 0
32 -4 64 0
-32 4 64 0
-32 -4 -64 0
32 5 -72 0
32 -5 72 0
-32 5 72 0
-32 -5 -72 0
32 7 -33 0
32 -7 33 0
-32 7 33 0
-32 -7 -33 0
33 8 -34 0
33 -8 34 0
-33 8 34 0
-33 -8 -34 0
34 12 -35 0
34 -12 35 0
-34 12 35 0
-34 -12 -35 0
36 5 -37 0
36 -5 37 0
-36 5 37 0
-36 -5 -37 0
37 7 -38 0
37 -7 38 0
-37 7 38 0
-37 -7 -38 0
38 8 -39 0
38 -8 39 0
-38 8 39 0
-38 -8 -39 0
39 10 -40 0
39 -10 40 0
-39 10 40 0
-39 -10 -40 0
40 12 -41 0
40 -12 41 0
-40 12 41 0
-40 -12 -41 0
41 13 -42 0
41 -13 42 0
-41 13 42 0
-41 -13 -42 0
43 5 -44 0
43 -5 44 0
-43 5 44 0
-43 -5 -44 0
44 6 -45 0
44 -6 45 0
-44 6 45 0
-44 -6 -45 0
45 10 -46 0
45 -10 46 0
-45 10 46 0
-45 -10 -46 0
46 15 -47 0
46 -15 47 0
-46 15 47 0
-46 -15 -47 0
48 10 -49 0
48 -10 49 0
-48 10 49 0
-48 -10 -49 0
49 14 -50 0
49 -14 50 0
-49 14 50 0
-49 -14 -50 0
50 15 -51 0
50 -15 51 0
-50 15 51 0
-50 -15 -51 0
52 6 -53 0
52 -6 53 0
-52 6 53 0
-52 -6 -53 0
53 9 -54 0
53 -9 54 0
-53 9 54 0
-53 -9 -54 0
54 11 -55 0
54 -11 55 0
-54 11 55 0
-54 -11 -55 0
55 12 -56 0
55 -12 56 0
-55 12 56 0
-55 -12 -56 0
56 14 -57 0
56 -14 57 0
-56 14 57 0
-56 -14 -57 0
58 6 -59 0
58 -6 59 0
-58 6 59 0
-58 -6 -59 0
59 7 -60 0
59 -7 60 0
-59 7 60 0
-59 -7 -60 0
60 8 -61 0
60 -8 61 0
-60 8 61 0
-60 -8 -61 0
61 12 -62 0
61 -12 62 0
-61 12 62 0
-61 -12 -62 0
62 13 -63 0
62 -13 63 0
-62 13 63 0
-62 -13 -63 0
64 5 -65 0
64 -5 65 0
-64 5 65 0
-64 -5 -65 0
65 7 -66 0
65 -7 66 0
-65 7 66 0
-65 -7 -66 0
66 8 -67 0
66 -8 67 0
-66 8 67 0
-66 -8 -67 0
67 9 -68 0
67 -9 68 0
-67 9 68 0
-67 -9 -68 0
68 10 -69 0
68 -10 69 0
-68 10 69 0
-68 -10 -69 0
69 11 -70 0
69 -11 70 0
-69 11 70 0
-69 -11 -70 0
70 12 -71 0
70 -12 71 0
-70 12 71 0
-70 -12 -71 0
72 7 -73 0
72 -7 73 0
-72 7 73 0
-72 -7 -73 0
73 12 -74 0
73 -12 74 0
-73 12 74 0
-73 -12 -74 0
74 14 -75 0
74 -14 75 0
-74 14 75 0
-74 -14 -75 0
-1 -2 -76 0
1 2 -76 0
1 -2 76 0
-1 2 76 0
-1 -2 77 0
1 -77 0
2 -77 0
-76 -3 -78 0
76 3 -78 0
76 -3 78 0
-76 3 78 0
-76 -3 79 0
76 -79 0
3 -79 0
-77 -79 -80 0
77 79 -80 0
77 -79 80 0
-77 79 80 0
-77 -79 81 0
77 -81 0
79 -81 0
-81 0
-78 -4 -82 0
78 4 -82 0
78 -4 82 0
-78 4 82 0
-78 -4 83 0
78 -83 0
4 -83 0
-80 -83 -84 0
80 83 -84 0
80 -83 84 0
-80 83 84 0
-80 -83 85 0
80 -85 0
83 -85 0
-82 -5 -86 0
82 5 -86 0
82 -5 86 0
-82 5 86 0
-82 -5 87 0
82 -87 0
5 -87 0
-84 -87 -88 0
84 87 -88 0
84 -87 88 0
-84 87 88 0
-84 -87 89 0
84 -89 0
87 -89 0
-85 -89 -90 0
85 89 -90 0
85 -89 90 0
-85 89 90 0
-85 -89 91 0
85 -91 0
89 -91 0
-91 0
-86 -6 -92 0
86 6 -92 0
86 -6 92 0
-86 6 92 0
-86 -6 93 0
86 -93 0
6 -93 0
-88 -93 -94 0
88 93 -94 0
88 -93 94 0
-88 93 94 0
-88 -93 95 0
88 -95 0
93 -95 0
-90 -95 -96 0
90 95 -96 0
90 -95 96 0
-90 95 96 0
-90 -95 97 0
90 -97 0
95 -97 0
-97 0
-92 -7 -98 0
92 7 -98 0
92 -7 98 0
-92 7 98 0
-92 -7 99 0
92 -99 0
7 -99 0
-94 -99 -100 0
94 99 -100 0
94 -99 100 0
-94 99 100 0
-94 -99 101 0
94 -101 0
99 -101 0
-96 -101 -102 0
96 101 -102 0
96 -101 102 0
-96 101 102 0
-96 -101 103 0
96 -103 0
101 -103 0
-103 0
-98 -8 -104 0
98 8 -104 0
98 -8 104 0
-98 8 104 0
-98 -8 105 0
98 -105 0
8 -105 0
-100 -105 -106 0
100 105 -106 0
100 -105 106 0
-100 105 106 0
-100 -105 107 0
100 -107 0
105 -107 0
-102 -107 -108 0
102 107 -108 0
102 -107 108 0
-102 107 108 0
-102 -107 109 0
102 -109 0
107 -109 0
-104 -9 -110 0
104 9 -110 0
104 -9 110 0
-104 9 110 0
-104 -9 111 0
104 -111 0
9 -111 0
-106 -111 -112 0
106 111 -112 0
106 -111 112 0
-106 111 112 0
-106 -111 113 0
106 -113 0
111 -113 0
-108 -113 -114 0
108 113 -114 0
108 -113 114 0
-108 113 114 0
-108 -113 115 0
108 -115 0
113 -115 0
-109 -115 -116 0
109 115 -116 0
109 -115 116 0
-109 115 116 0
-109 -115 117 0
109 -117 0
115 -117 0
-117 0
-110 -10 -118 0
110 10 -118 0
110 -10 118 0
-110 10 118 0
-110 -10 119 0
110 -119 0
10 -119 0
-112 -119 -120 0
112 119 -120 0
112 -119 120 0
-112 119 120 0
-112 -119 121 0
112 -121 0
119 -121 0
-114 -121 -122 0
114 121 -122 0
114 -121 122 0
-114 121 122 0
-114 -121 123 0
114 -123 0
121 -123 0
-116 -123 -124 0
116 123 -124 0
116 -123 124 0
-116 123 124 0
-116 -123 125 0
116 -125 0
123 -125 0
-125 0
-118 -11 -126 0
118 11 -126 0
118 -11 126 0
-118 11 126 0
-118 -11 127 0
118 -127 0
11 -127 0
-120 -127 -128 0
120 127 -128 0
120 -127 128 0
-120 127 128 0
-120 -127 129 0
120 -129 0
127 -129 0
-122 -129 -130 0
122 129 -130 0
122 -129 130 0
-122 129 130 0
-122 -129 131 0
122 -131 0
129 -131 0
-124 -131 -132 0
124 131 -132 0
124 -131 132 0
-124 131 132 0
-124 -131 133 0
124 -133 0
131 -133 0
-133 0
-126 -12 -134 0
126 12 -134 0
126 -12 134 0
-126 12 134 0
-126 -12 135 0
126 -135 0
12 -135 0
-128 -135 -136 0
128 135 -136 0
128 -135 136 0
-128 135 136 0
-128 -135 137 0
128 -137 0
135 -137 0
-130 -137 -138 0
130 137 -138 0
130 -137 138 0
-130 137 138 0
-130 -137 139 0
130 -139 0
137 -139 0
-132 -139 -140 0
132 139 -140 0
132 -139 140 0
-132 139 140 0
-132 -139 141 0
132 -141 0
139 -141 0
-141 0
-134 -13 -142 0
134 13 -142 0
134 -13 142 0
-134 13 142 0
-134 -13 143 0
134 -143 0
13 -143 0
-136 -143 -144 0
136 143 -144 0
136 -143 144 0
-136 143 144 0
-136 -143 145 0
136 -145 0
143 -145 0
-138 -145 -146 0
138 145 -146 0
138 -145 146 0
-138 145 146 0
-138 -145 147 0
138 -147 0
145 -147 0
-140 -147 -148 0
140 147 -148 0
140 -147 148 0
-140 147 148 0
-140 -147 149 0
140 -149 0
147 -149 0
-149 0
-142 -14 -150 0
142 14 -150 0
142 -14 150 0
-142 14 150 0
-142 -14 151 0
142 -151 0
14 -151 0
-144 -151 -152 0
144 151 -152 0
144 -151 152 0
-144 151 152 0
-144 -151 153 0
144 -153 0
151 -153 0
-146 -153 -154 0
146 153 -154 0
146 -153 154 0
-146 153 154 0
-146 -153 155 0
146 -155 0
153 -155 0
-148 -155 -156 0
148 155 -156 0
148 -155 156 0
-148 155 156 0
-148 -155 157 0
148 -157 0
155 -157 0
-157 0
-150 -15 -158 0
150 15 -158 0
150 -15 158 0
-150 15 158 0
-150 -15 159 0
150 -159 0
15 -159 0
-152 -159 -160 0
152 159 -160 0
152 -159 160 0
-152 159 160 0
-152 -159 161 0
152 -161 0
159 -161 0
-154 -161 -162 0
154 161 -162 0
154 -161 162 0
-154 161 162 0
-154 -161 163 0
154 -163 0
161 -163 0
-156 -163 -164 0
156 163 -164 0
156 -163 164 0
-156 163 164 0
-156 -163 165 0
156 -165 0
163 -165 0
-165 0
-158 -16 -166 0
158 16 -166 0
158 -16 166 0
-158 16 166 0
-158 -16 167 0
158 -167 0
16 -167 0
-160 -167 -168 0
160 167 -168 0
160 -167 168 0
-160 167 168 0
-160 -167 169 0
160 -169 0
167 -169 0
-162 -169 -170 0
162 169 -170 0
162 -169 170 0
-162 169 170 0
-162 -169 171 0
162 -171 0
169 -171 0
-164 -171 -172 0
164 171 -172 0
164 -171 172 0
-164 171 172 0
-164 -171 173 0
164 -173 0
171 -173 0
166 0
168 0
-170 0
-172 0
-173 0
